200 784 
1 5 1
1 7 1
1 8 1
1 9 1
1 10 1
1 14 1
1 15 1
1 16 1
1 21 1
1 24 1
1 29 1
1 30 1
1 34 1
1 43 1
1 49 1
1 51 1
1 67 1
1 76 1
1 80 1
1 95 1
1 103 1
1 108 1
1 112 1
1 114 1
1 117 1
1 123 1
1 143 1
1 150 1
1 154 1
1 165 1
2 5 1
2 6 1
2 7 1
2 8 1
2 13 1
2 21 1
2 27 1
2 33 1
2 37 1
2 48 1
2 50 1
2 51 1
2 62 1
2 63 1
2 64 1
2 67 1
2 86 1
2 87 1
2 90 1
2 102 1
2 106 1
2 126 1
2 127 1
2 128 1
2 200 1
3 5 1
3 6 1
3 7 1
3 8 1
3 9 1
3 10 1
3 11 1
3 12 1
3 27 1
3 32 1
3 33 1
3 35 1
3 44 1
3 66 1
3 70 1
3 79 1
3 82 1
3 85 1
3 89 1
3 92 1
3 97 1
3 98 1
3 100 1
3 113 1
3 121 1
3 143 1
3 144 1
3 152 1
3 178 1
3 182 1
4 5 1
4 6 1
4 10 1
4 11 1
4 12 1
4 13 1
4 14 1
4 15 1
4 17 1
4 18 1
4 19 1
4 20 1
4 21 1
4 23 1
4 32 1
4 34 1
4 36 1
4 41 1
4 43 1
4 52 1
4 54 1
4 58 1
4 59 1
4 69 1
4 73 1
4 76 1
4 90 1
4 104 1
4 129 1
4 132 1
4 147 1
4 152 1
4 158 1
4 169 1
4 178 1
4 188 1
4 196 1
5 6 1
5 7 1
5 12 1
5 13 1
5 16 1
5 21 1
5 22 1
5 25 1
5 28 1
5 30 1
5 37 1
5 38 1
5 44 1
5 48 1
5 52 1
5 57 1
5 65 1
5 74 1
5 82 1
5 93 1
5 96 1
5 100 1
5 106 1
5 128 1
5 131 1
5 136 1
5 137 1
5 143 1
5 146 1
5 155 1
5 165 1
5 166 1
5 179 1
6 8 1
6 9 1
6 10 1
6 11 1
6 12 1
6 14 1
6 15 1
6 16 1
6 17 1
6 18 1
6 19 1
6 22 1
6 23 1
6 25 1
6 26 1
6 28 1
6 32 1
6 34 1
6 38 1
6 39 1
6 40 1
6 45 1
6 46 1
6 53 1
6 58 1
6 60 1
6 61 1
6 69 1
6 71 1
6 72 1
6 74 1
6 78 1
6 82 1
6 85 1
6 98 1
6 99 1
6 101 1
6 104 1
6 111 1
6 112 1
6 114 1
6 124 1
6 133 1
6 137 1
6 145 1
6 150 1
6 156 1
6 174 1
6 176 1
6 184 1
6 193 1
6 195 1
7 9 1
7 17 1
7 19 1
7 22 1
7 24 1
7 27 1
7 63 1
7 101 1
7 118 1
7 122 1
7 124 1
7 126 1
7 140 1
7 142 1
7 162 1
7 194 1
8 40 1
8 49 1
8 51 1
8 81 1
8 83 1
8 93 1
8 119 1
8 123 1
8 184 1
8 196 1
9 11 1
9 20 1
9 30 1
9 32 1
9 36 1
9 42 1
9 49 1
9 57 1
9 63 1
9 75 1
9 86 1
9 111 1
9 132 1
9 134 1
9 142 1
9 172 1
10 13 1
10 17 1
10 20 1
10 25 1
10 34 1
10 35 1
10 53 1
10 89 1
10 96 1
10 127 1
10 129 1
10 155 1
10 168 1
10 176 1
10 188 1
10 191 1
11 15 1
11 19 1
11 20 1
11 26 1
11 29 1
11 31 1
11 37 1
11 42 1
11 56 1
11 62 1
11 70 1
11 76 1
11 77 1
11 81 1
11 90 1
11 97 1
11 101 1
11 121 1
11 136 1
11 183 1
12 14 1
12 25 1
12 29 1
12 35 1
12 37 1
12 47 1
12 53 1
12 65 1
12 75 1
12 110 1
12 133 1
12 172 1
12 177 1
12 198 1
13 18 1
13 38 1
13 41 1
13 43 1
13 50 1
13 55 1
13 59 1
13 64 1
13 79 1
13 85 1
13 105 1
13 130 1
13 136 1
13 140 1
13 149 1
13 173 1
14 23 1
14 24 1
14 28 1
14 33 1
14 36 1
14 45 1
14 46 1
14 49 1
14 52 1
14 56 1
14 58 1
14 60 1
14 68 1
14 73 1
14 80 1
14 83 1
14 84 1
14 89 1
14 96 1
14 98 1
14 146 1
14 200 1
15 16 1
15 27 1
15 74 1
15 125 1
15 197 1
16 22 1
16 31 1
16 115 1
16 151 1
17 18 1
17 35 1
17 56 1
17 57 1
17 73 1
17 86 1
17 184 1
17 191 1
18 38 1
18 39 1
18 44 1
18 46 1
18 47 1
18 77 1
18 88 1
18 99 1
18 104 1
18 107 1
18 124 1
18 130 1
18 138 1
18 143 1
18 192 1
18 196 1
19 79 1
19 103 1
19 111 1
19 147 1
19 148 1
19 166 1
19 169 1
20 51 1
20 53 1
20 83 1
20 112 1
20 187 1
20 189 1
20 194 1
21 23 1
21 29 1
21 41 1
21 61 1
21 70 1
21 84 1
21 92 1
21 95 1
21 114 1
21 119 1
21 152 1
21 164 1
21 174 1
21 180 1
21 190 1
22 64 1
22 90 1
22 100 1
22 107 1
22 125 1
22 132 1
22 134 1
22 135 1
22 154 1
23 24 1
23 26 1
23 28 1
23 31 1
23 42 1
23 48 1
23 54 1
23 55 1
23 65 1
23 71 1
23 89 1
23 101 1
23 105 1
23 106 1
23 160 1
23 163 1
23 168 1
23 170 1
23 171 1
23 189 1
24 26 1
24 40 1
24 42 1
24 50 1
24 103 1
24 142 1
24 166 1
25 55 1
25 94 1
25 108 1
25 126 1
25 154 1
25 172 1
26 66 1
26 71 1
26 151 1
27 95 1
27 147 1
28 33 1
28 45 1
28 61 1
28 62 1
28 65 1
28 71 1
28 74 1
28 77 1
28 109 1
28 118 1
28 138 1
28 156 1
28 158 1
28 189 1
28 193 1
29 30 1
29 46 1
29 55 1
29 58 1
29 62 1
29 68 1
29 75 1
29 82 1
29 95 1
29 110 1
29 120 1
29 188 1
30 31 1
30 39 1
30 44 1
30 92 1
30 116 1
30 119 1
30 120 1
30 134 1
30 142 1
30 177 1
31 122 1
32 36 1
32 160 1
33 47 1
33 77 1
33 78 1
33 159 1
34 50 1
35 40 1
35 52 1
35 67 1
35 152 1
35 181 1
36 41 1
36 84 1
36 87 1
36 123 1
36 136 1
37 59 1
37 66 1
37 69 1
37 72 1
37 80 1
37 91 1
37 97 1
37 139 1
37 162 1
37 177 1
38 39 1
38 200 1
39 102 1
40 54 1
40 56 1
40 57 1
40 122 1
40 169 1
41 43 1
41 59 1
41 79 1
41 81 1
41 115 1
41 154 1
41 161 1
41 162 1
41 190 1
42 135 1
43 45 1
43 54 1
43 105 1
44 47 1
44 94 1
44 145 1
44 160 1
44 174 1
45 72 1
45 102 1
45 120 1
45 139 1
45 155 1
46 68 1
47 48 1
47 70 1
47 78 1
47 186 1
48 116 1
48 191 1
49 68 1
49 83 1
49 164 1
50 84 1
50 113 1
50 169 1
51 72 1
51 178 1
52 99 1
52 110 1
52 140 1
52 171 1
52 179 1
52 187 1
53 60 1
53 66 1
53 108 1
53 157 1
53 158 1
54 60 1
54 86 1
54 93 1
54 104 1
54 117 1
54 148 1
54 164 1
55 61 1
55 102 1
55 123 1
55 129 1
55 148 1
55 153 1
55 166 1
55 173 1
56 81 1
56 103 1
57 67 1
57 180 1
58 94 1
58 127 1
58 150 1
59 63 1
59 91 1
59 117 1
59 145 1
59 153 1
59 174 1
59 177 1
60 106 1
60 117 1
60 121 1
60 145 1
60 157 1
61 64 1
61 87 1
61 125 1
61 199 1
62 69 1
62 108 1
63 159 1
63 162 1
64 92 1
64 93 1
64 182 1
64 195 1
65 76 1
65 109 1
65 153 1
65 173 1
66 91 1
66 161 1
67 197 1
68 87 1
68 118 1
68 156 1
68 196 1
69 73 1
69 125 1
69 128 1
69 137 1
69 163 1
69 181 1
70 78 1
70 115 1
70 167 1
72 114 1
72 199 1
73 80 1
73 113 1
74 75 1
74 190 1
75 88 1
75 98 1
75 110 1
75 124 1
76 96 1
76 137 1
76 146 1
76 157 1
77 97 1
77 109 1
77 131 1
77 135 1
77 158 1
77 159 1
77 192 1
77 199 1
78 85 1
78 88 1
78 115 1
78 130 1
78 144 1
78 146 1
78 148 1
79 181 1
79 199 1
80 172 1
80 195 1
81 127 1
81 159 1
81 167 1
82 132 1
82 133 1
83 111 1
83 131 1
84 94 1
84 116 1
84 140 1
84 168 1
84 179 1
84 184 1
85 88 1
85 141 1
86 100 1
87 91 1
88 120 1
89 107 1
89 121 1
89 134 1
89 139 1
89 168 1
89 176 1
90 161 1
90 193 1
91 112 1
91 116 1
91 135 1
92 144 1
93 178 1
94 99 1
94 105 1
94 126 1
94 131 1
94 149 1
94 170 1
94 185 1
95 141 1
96 118 1
96 119 1
96 186 1
96 200 1
97 160 1
97 180 1
97 194 1
98 171 1
98 175 1
99 109 1
99 180 1
100 138 1
100 171 1
101 107 1
101 128 1
101 149 1
101 194 1
101 198 1
103 122 1
106 147 1
106 176 1
107 149 1
107 182 1
108 129 1
108 157 1
109 164 1
109 173 1
110 138 1
110 170 1
110 183 1
111 113 1
111 161 1
111 195 1
112 185 1
114 156 1
116 190 1
117 144 1
118 130 1
118 165 1
119 133 1
123 151 1
123 153 1
123 181 1
125 139 1
127 155 1
127 188 1
128 141 1
129 141 1
130 186 1
132 150 1
136 165 1
137 167 1
137 175 1
138 175 1
142 182 1
142 192 1
144 151 1
144 170 1
144 197 1
145 163 1
151 163 1
152 187 1
153 179 1
157 183 1
157 198 1
159 186 1
160 175 1
161 167 1
161 189 1
168 183 1
169 198 1
172 185 1
172 197 1
176 187 1
180 192 1
183 185 1
190 191 1
190 193 1
